DIMENSION: 48
TOUR_SECTION
2 2233 10
41 4985 140
16 6107 669
29 3177 756
4 401 841
26 675 1006
22 6101 1110
34 4608 1198
8 7265 1268
3 5530 1424
1 6734 1453
42 1916 1569
5 3082 1644
9 6898 1885
48 3023 1942
14 4612 2035
10 1112 2049
40 6271 2135
23 5199 2182
35 23 2216
38 7392 2244
25 4307 2322
11 5468 2606
13 4706 2674
45 10 2676
15 6347 2683
31 7545 2801
24 1633 2809
39 3484 2829
12 5989 2873
46 6807 2993
33 6426 3173
44 7509 3239
47 5185 3258
32 3245 3305
21 4483 3369
20 5900 3561
18 7462 3590
7 7573 3716
36 7248 3779
28 7541 3981
6 7608 4458
30 7352 4506
37 7762 4595
19 7732 4723
27 7555 4819
43 7280 4899
17 7611 5184
2 2233 10
